; vmt-chc-benchmarks/./cav12/toy-bug-2_000.smt2
(set-logic HORN)

(declare-fun |state| ( Bool Bool Bool Bool Bool Real Real Real Real Real Real Real Real Real Real Real Real Real Real Real Real Real Real Real Real Real Real Real Real Real Real Real Real ) Bool)

(assert
  (forall ( (A Bool) (B Real) (C Real) (D Real) (E Real) (F Real) (G Real) (H Real) (I Real) (J Real) (K Real) (L Real) (M Real) (N Real) (O Real) (P Real) (Q Real) (R Real) (S Real) (T Real) (U Real) (V Real) (W Real) (X Real) (Y Real) (Z Real) (A1 Real) (B1 Real) (C1 Real) (D1 Bool) (E1 Bool) (F1 Bool) (G1 Bool) ) 
    (=>
      (and
        (and (not G1) (not F1) (not E1) (not D1) (not A))
      )
      (state A D1 F1 E1 G1 I M Q R U C1 V B1 A1 Z C G H J K F Y L B N O X D P W S T E)
    )
  )
)
(assert
  (forall ( (A Bool) (B Bool) (C Bool) (D Bool) (E Bool) (F Bool) (G Real) (H Real) (I Real) (J Real) (K Real) (L Real) (M Real) (N Real) (O Real) (P Real) (Q Real) (R Real) (S Real) (T Real) (U Real) (V Real) (W Real) (X Real) (Y Real) (Z Real) (A1 Real) (B1 Real) (C1 Real) (D1 Real) (E1 Real) (F1 Real) (G1 Real) (H1 Real) (I1 Real) (J1 Real) (K1 Real) (L1 Real) (M1 Real) (N1 Real) (O1 Real) (P1 Real) (Q1 Real) (R1 Real) (S1 Real) (T1 Real) (U1 Real) (V1 Real) (W1 Real) (X1 Real) (Y1 Real) (Z1 Real) (A2 Real) (B2 Real) (C2 Real) (D2 Real) (E2 Real) (F2 Real) (G2 Real) (H2 Real) (I2 Real) (J2 Real) (K2 Real) (L2 Real) (M2 Real) (N2 Real) (O2 Real) (P2 Real) (Q2 Real) (R2 Real) (S2 Real) (T2 Real) (U2 Real) (V2 Real) (W2 Real) (X2 Real) (Y2 Real) (Z2 Real) (A3 Real) (B3 Real) (C3 Bool) (D3 Bool) (E3 Bool) (F3 Bool) ) 
    (=>
      (and
        (state A
       C3
       E3
       D3
       F3
       A1
       J1
       R1
       T1
       A2
       J2
       C2
       I2
       H2
       G2
       L
       U
       X
       B1
       D1
       Q
       F2
       F1
       I
       K1
       M1
       E2
       N
       O1
       D2
       U1
       W1
       O)
        (let ((a!1 (or (and (= B3 2.0)
                    (= A3 2.0)
                    (= Z2 1.0)
                    (= Y2 2.0)
                    (= X2 2.0)
                    (= W2 2.0)
                    (= V2 2.0)
                    (= V2 0.0)
                    (= Y1 0.0)
                    (= X1 0.0)
                    (= V1 0.0)
                    (= H1 0.0)
                    (= G1 0.0)
                    (= E1 0.0)
                    (= W 0.0)
                    (= V 0.0)
                    (= T 0.0)
                    (= S 0.0)
                    (= P 0.0)
                    (= M 0.0)
                    (= K 0.0)
                    (= J 0.0)
                    (= H 0.0))
               (and (= B3 2.0)
                    (= A3 2.0)
                    (= Y2 2.0)
                    (= X2 2.0)
                    (= W2 2.0)
                    (= V2 Z2)
                    (= V2 2.0)
                    (not (= V2 0.0))
                    (= Y1 0.0)
                    (= X1 0.0)
                    (= V1 0.0)
                    (= H1 0.0)
                    (= G1 0.0)
                    (= E1 0.0)
                    (= W 0.0)
                    (= V 0.0)
                    (= T 0.0)
                    (= S 0.0)
                    (= P 0.0)
                    (= M 0.0)
                    (= K 0.0)
                    (= J 0.0)
                    (= H 0.0))))
      (a!8 (or (and (= V2 K1)
                    (not (= N 0.0))
                    (not (= Q 0.0))
                    (= U F1)
                    (not (= B1 0.0))
                    (not (= U1 0.0))
                    (= W1 1.0)
                    (= G1 F1)
                    (not (= I2 0.0)))
               (and (= V2 0.0)
                    (not (= N 0.0))
                    (not (= Q 0.0))
                    (not (= U F1))
                    (not (= B1 0.0))
                    (not (= U1 0.0))
                    (= W1 1.0)
                    (= G1 U)
                    (not (= I2 0.0)))))
      (a!27 (or (and (not (= L 1.0)) (= M N) (= K 0.0) (= J I) (= G I))
                (and (= L 1.0) (= M 0.0) (= K 0.0) (= J I) (= G I))))
      (a!29 (or (and (= B1 0.0)
                     (= H1 F1)
                     (not (= F2 1.0))
                     (= Z K2)
                     (not (= Z 0.0)))
                (and (not (= X 1.0))
                     (= B1 0.0)
                     (= H1 F1)
                     (= F2 1.0)
                     (= Z K2)
                     (not (= Z 0.0)))))
      (a!32 (or (and (= D1 0.0) (= U1 0.0) (= I1 M2) (not (= I1 0.0)))
                (and (not (= D1 1.0))
                     (not (= D1 0.0))
                     (= U1 0.0)
                     (= I1 M2)
                     (not (= I1 0.0)))))
      (a!34 (and (= L 1.0)
                 (not (= L 0.0))
                 (= N 0.0)
                 (= B2 Q2)
                 (not (= B2 0.0))
                 (not (= D1 1.0))
                 (= V1 U1)
                 (= G2 0.0)
                 (= (+ J (* (- 1.0) H2)) 1.0)))
      (a!35 (and (= L 1.0)
                 (not (= L 0.0))
                 (= N 0.0)
                 (= B2 Q2)
                 (not (= B2 0.0))
                 (= D1 1.0)
                 (= V1 0.0)
                 (= G2 0.0)
                 (= (+ J (* (- 1.0) H2)) 1.0)))
      (a!36 (or (and (= L 0.0) (= N 0.0) (= B2 Q2) (not (= B2 0.0)))
                (and (not (= L 1.0))
                     (not (= L 0.0))
                     (= N 0.0)
                     (= B2 Q2)
                     (not (= B2 0.0)))))
      (a!38 (and (= O 1.0)
                 (not (= O 0.0))
                 (= Q 0.0)
                 (not (= D1 1.0))
                 (= V1 U1)
                 (= S1 O2)
                 (not (= S1 0.0))
                 (= G2 0.0)
                 (= (+ J (* (- 1.0) H2)) 1.0)))
      (a!39 (and (= O 1.0)
                 (not (= O 0.0))
                 (= Q 0.0)
                 (= D1 1.0)
                 (= V1 0.0)
                 (= S1 O2)
                 (not (= S1 0.0))
                 (= G2 0.0)
                 (= (+ J (* (- 1.0) H2)) 1.0)))
      (a!40 (or (and (= O 0.0) (= Q 0.0) (= S1 O2) (not (= S1 0.0)))
                (and (not (= O 1.0))
                     (not (= O 0.0))
                     (= Q 0.0)
                     (= S1 O2)
                     (not (= S1 0.0)))))
      (a!42 (or (and (= N 0.0) (not (= I2 0.0)))
                (and (not (= N 0.0)) (= Q 0.0) (not (= I2 0.0)))
                (and (not (= N 0.0))
                     (not (= Q 0.0))
                     (= U1 0.0)
                     (not (= I2 0.0)))
                (and (not (= N 0.0))
                     (not (= Q 0.0))
                     (= B1 0.0)
                     (not (= U1 0.0))
                     (not (= I2 0.0)))
                (= I2 0.0)))
      (a!46 (not (= (+ G (* (- 1.0) I)) (- 1.0)))))
(let ((a!2 (or (and a!1 (= B3 C1) (not (= Z2 1.0)))
               (and a!1 (= Z2 1.0) (= C1 0.0))))
      (a!9 (or (and a!8 (= X1 0.0))
               (and (= V2 K1)
                    (not (= N 0.0))
                    (not (= Q 0.0))
                    (not (= B1 0.0))
                    (= X1 W1)
                    (not (= U1 0.0))
                    (not (= W1 1.0))
                    (= G1 F1)
                    (not (= I2 0.0)))))
      (a!28 (or (and a!27 (not (= O 1.0)) (= P Q))
                (and a!27 (= O 1.0) (= P 0.0))))
      (a!30 (or (and a!29 (not (= F2 2.0)) (= S I2))
                (and a!29 (= F2 2.0) (= S 0.0))
                (and (= X 1.0)
                     (= B1 0.0)
                     (= H1 F1)
                     (= F2 1.0)
                     (= Z K2)
                     (not (= Z 0.0))
                     (= S 0.0))))
      (a!33 (or (and a!32 (= X1 W1) (= V U) (= K G2))
                (and (= D1 1.0)
                     (not (= D1 0.0))
                     (= X1 1.0)
                     (= U1 0.0)
                     (= I1 M2)
                     (not (= I1 0.0))
                     (= V H2)
                     (= K 1.0))))
      (a!37 (or (and (or a!34 a!35) (= P1 2.0))
                (and a!36 (= V1 U1) (= P1 O1) (= J H2))
                (and (= L 1.0)
                     (not (= L 0.0))
                     (= N 0.0)
                     (= B2 Q2)
                     (not (= B2 0.0))
                     (= V1 U1)
                     (= P1 O1)
                     (not (= G2 0.0))
                     (= J H2))))
      (a!41 (or (and (or a!38 a!39) (= P1 2.0))
                (and a!40 (= V1 U1) (= P1 O1) (= J H2))
                (and (= O 1.0)
                     (not (= O 0.0))
                     (= Q 0.0)
                     (= V1 U1)
                     (= S1 O2)
                     (not (= S1 0.0))
                     (= P1 O1)
                     (not (= G2 0.0))
                     (= J H2))))
      (a!43 (and a!42
                 (= Q1 U2)
                 (not (= Q1 0.0))
                 (= F2 2.0)
                 (not (= F2 0.0))
                 (= I2 0.0)
                 (= G D2)
                 (= (+ G (* (- 1.0) I)) (- 1.0))))
      (a!45 (or (and a!42 (= Q1 T2) (not (= Q1 0.0)) (= F2 0.0) (= I2 0.0))
                (and a!42
                     (= Q1 T2)
                     (not (= Q1 0.0))
                     (not (= F2 1.0))
                     (not (= F2 2.0))
                     (not (= F2 0.0))
                     (= I2 0.0)))))
(let ((a!3 (or (and a!2 (= Y2 N1) (not (= Y2 1.0)))
               (and a!2 (= Y2 1.0) (= N1 2.0))))
      (a!10 (or (and a!9 (= W2 E2) (not (= E2 0.0)))
                (and a!9 (= W2 1.0) (= E2 0.0))))
      (a!31 (or (and a!30 (= N1 2.0) (= C1 2.0))
                (and (= A1 Z)
                     (not (= B1 0.0))
                     (= N1 M1)
                     (= H1 I)
                     (= C1 B1)
                     (= S I2))
                (and (= B1 0.0)
                     (= N1 M1)
                     (= H1 I)
                     (= C1 B1)
                     (= Z K2)
                     (= Z 0.0)
                     (= S I2))))
      (a!44 (or (and a!42
                     (= Q1 U2)
                     (not (= Q1 0.0))
                     (= F2 1.0)
                     (not (= F2 2.0))
                     (not (= F2 0.0))
                     (= I2 0.0)
                     (= J2 G))
                a!43)))
(let ((a!4 (or (and a!3 (= W2 R) (not (= W2 1.0)))
               (and a!3 (= W2 1.0) (= R 2.0))))
      (a!11 (or (and a!10 (= X2 O1) (not (= O1 0.0)))
                (and a!10 (= X2 1.0) (= O1 0.0)))))
(let ((a!5 (or (and a!4 (= X2 P1) (not (= X2 1.0)))
               (and a!4 (= X2 1.0) (= P1 2.0))))
      (a!12 (or (and a!11 (= Y2 M1) (not (= M1 0.0)))
                (and a!11 (= Y2 1.0) (= M1 0.0)))))
(let ((a!6 (or (and a!5 (= Z2 L1) (not (= Z2 1.0)))
               (and a!5 (= Z2 1.0) (= L1 2.0))))
      (a!13 (or (and a!12 (= Z2 1.0) (= V2 0.0))
                (and a!12 (= V2 Z2) (not (= V2 0.0))))))
(let ((a!7 (or (and a!6 (= A3 Y) (not (= A3 1.0)))
               (and a!6 (= A3 1.0) (= Y 2.0))))
      (a!14 (or (and a!13 (= A3 X) (not (= X 0.0)))
                (and a!13 (= A3 1.0) (= X 0.0)))))
(let ((a!15 (or (and a!14 (not (= F2 1.0)))
                (and a!14 (not (= A3 1.0)) (= F2 1.0)))))
(let ((a!16 (or (and a!15 (not (= F2 2.0)) (= S I2))
                (and a!15 (not (= Y2 1.0)) (= F2 2.0) (= S I2))
                (and a!15 (= Y2 1.0) (= F2 2.0) (= S 0.0))
                (and a!14 (= A3 1.0) (= F2 1.0) (= S 0.0)))))
(let ((a!17 (or (and a!16 (not (= L 1.0)) (= M N))
                (and a!16 (not (= W2 1.0)) (= L 1.0) (= M N))
                (and a!16 (= W2 1.0) (= L 1.0) (= M 0.0)))))
(let ((a!18 (or (and a!17 (not (= O 1.0)) (= P Q))
                (and a!17 (not (= W2 1.0)) (= O 1.0) (= P Q))
                (and a!17 (= W2 1.0) (= O 1.0) (= P 0.0)))))
(let ((a!19 (or (and a!18 (not (= D1 1.0)) (= V1 U1))
                (and a!18 (not (= X2 1.0)) (= D1 1.0) (= V1 U1))
                (and a!18 (= X2 1.0) (= D1 1.0) (= V1 0.0)))))
(let ((a!20 (or (and a!19 (not (= Z2 1.0)) (= C1 B1))
                (and a!19 (= Z2 1.0) (= C1 0.0)))))
(let ((a!21 (or (and a!20 (= Y2 N1) (not (= Y2 1.0)))
                (and a!20 (= Y2 1.0) (= N1 2.0)))))
(let ((a!22 (or (and a!21 (= W2 R) (not (= W2 1.0)))
                (and a!21 (= W2 1.0) (= R 2.0)))))
(let ((a!23 (or (and a!22 (= X2 P1) (not (= X2 1.0)))
                (and a!22 (= X2 1.0) (= P1 2.0)))))
(let ((a!24 (or (and a!23 (= Z2 L1) (not (= Z2 1.0)))
                (and a!23 (= Z2 1.0) (= L1 2.0)))))
(let ((a!25 (or (and a!24 (= A3 Y) (not (= A3 1.0)))
                (and a!24 (= A3 1.0) (= Y 2.0)))))
(let ((a!26 (or (and a!25 (= S 0.0))
                (and a!25 (not (= S 0.0)) (= M 0.0))
                (and a!25 (not (= S 0.0)) (= P 0.0) (not (= M 0.0)))
                (and a!25
                     (= V1 0.0)
                     (not (= S 0.0))
                     (not (= P 0.0))
                     (not (= M 0.0)))
                (and a!25
                     (not (= V1 0.0))
                     (= C1 0.0)
                     (not (= S 0.0))
                     (not (= P 0.0))
                     (not (= M 0.0))))))
  (or (and (not A) F (not E) (not D) C (not B) C3 (not D3) (not E3) F3)
      (and (not A)
           (not F)
           (not E)
           (not D)
           (not C)
           B
           (not C3)
           (not D3)
           (not E3)
           (not F3)
           a!7
           (= A1 Z)
           (= J1 I1)
           (= R1 Q1)
           (= T1 S1)
           (= A2 Z1)
           (= C2 B2)
           (= J2 G))
      (and (not A)
           (not F)
           (not E)
           (not D)
           (not C)
           B
           C3
           (not D3)
           (not E3)
           (not F3)
           a!26
           (= A1 Z)
           (= Y1 O)
           (= J1 I1)
           (= R1 Q1)
           (= T1 S1)
           (= H1 I)
           (= E1 D1)
           (= A2 Z1)
           (= C2 B2)
           (= J2 G)
           (= W L)
           (= V U)
           (= T F2)
           (= K G2)
           (= J H2)
           (= H D2))
      (and (not A)
           (not F)
           (not E)
           D
           (not C)
           B
           (not C3)
           (not D3)
           E3
           (not F3)
           a!28
           (= A1 Z)
           (= Y1 O)
           (= X1 W1)
           (= V1 U1)
           (= J1 I1)
           (= P1 O1)
           (= N1 M1)
           (= R1 Q1)
           (= L1 K1)
           (= T1 S1)
           (= H1 I)
           (= G1 F1)
           (= E1 D1)
           (= A2 Z1)
           (= C1 B1)
           (= C2 B2)
           (= Y X)
           (= W L)
           (= V U)
           (= T 2.0)
           (= S 2.0)
           (= R 2.0)
           (= H G))
      (and (not A)
           (not F)
           (not E)
           (not D)
           C
           (not B)
           (not C3)
           (not D3)
           (not E3)
           F3
           a!31
           (= Y1 O)
           (= X1 W1)
           (= V1 U1)
           (= J1 I1)
           (= P1 O1)
           (= R1 Q1)
           (= L1 K1)
           (= T1 S1)
           (= G1 F1)
           (= E1 D1)
           (= A2 Z1)
           (= C2 B2)
           (= J2 G)
           (= Y X)
           (= W L)
           (= V U)
           (= T F2)
           (= R E2)
           (= P Q)
           (= M N)
           (= K G2)
           (= J H2)
           (= H D2))
      (and A
           (not F)
           E
           D
           C
           (not B)
           (not C3)
           D3
           E3
           (not F3)
           a!33
           (= A1 Z)
           (= Y1 O)
           (= V1 U1)
           (= P1 O1)
           (= N1 M1)
           (= R1 Q1)
           (= L1 K1)
           (= T1 S1)
           (= H1 I)
           (= G1 F1)
           (= E1 D1)
           (= A2 Z1)
           (= C1 B1)
           (= C2 B2)
           (= J2 G)
           (= Y X)
           (= W L)
           (= T F2)
           (= S I2)
           (= R E2)
           (= P Q)
           (= M N)
           (= J H2)
           (= H D2))
      (and A
           (not F)
           E
           (not D)
           (not C)
           (not B)
           C3
           (not D3)
           E3
           (not F3)
           a!37
           (= A1 Z)
           (= Y1 O)
           (= X1 W1)
           (= J1 I1)
           (= N1 M1)
           (= R1 Q1)
           (= L1 K1)
           (= T1 S1)
           (= H1 I)
           (= G1 F1)
           (= E1 D1)
           (= A2 Z1)
           (= C1 B1)
           (= J2 G)
           (= Y X)
           (= W L)
           (= V U)
           (= T F2)
           (= S I2)
           (= R E2)
           (= P Q)
           (= M N)
           (= K G2)
           (= H D2))
      (and (not A)
           (not F)
           E
           (not D)
           C
           B
           C3
           D3
           (not E3)
           (not F3)
           a!41
           (= A1 Z)
           (= Y1 O)
           (= X1 W1)
           (= J1 I1)
           (= N1 M1)
           (= R1 Q1)
           (= L1 K1)
           (= H1 I)
           (= G1 F1)
           (= E1 D1)
           (= A2 Z1)
           (= C1 B1)
           (= C2 B2)
           (= J2 G)
           (= Y X)
           (= W L)
           (= V U)
           (= T F2)
           (= S I2)
           (= R E2)
           (= P Q)
           (= M N)
           (= K G2)
           (= H D2))
      (and (not A)
           (not F)
           (not E)
           D
           (not C)
           (not B)
           C3
           (not D3)
           (not E3)
           (not F3)
           a!44
           (= A1 Z)
           (= Y1 O)
           (= X1 W1)
           (= V1 U1)
           (= J1 I1)
           (= P1 O1)
           (= N1 M1)
           (= L1 K1)
           (= T1 S1)
           (= H1 I)
           (= G1 F1)
           (= E1 D1)
           (= A2 Z1)
           (= C1 B1)
           (= C2 B2)
           (= Y X)
           (= W L)
           (= V U)
           (= T F2)
           (= S I2)
           (= R E2)
           (= P Q)
           (= M N)
           (= K G2)
           (= J H2)
           (= H D2))
      (and (not A)
           (not F)
           (not E)
           D
           (not C)
           B
           C3
           (not D3)
           (not E3)
           (not F3)
           a!45
           (= A1 Z)
           (= Y1 O)
           (= X1 W1)
           (= V1 U1)
           (= J1 I1)
           (= P1 O1)
           (= N1 M1)
           (= L1 K1)
           (= T1 S1)
           (= H1 I)
           (= G1 F1)
           (= E1 D1)
           (= A2 Z1)
           (= C1 B1)
           (= C2 B2)
           (= J2 G)
           (= Y 0.0)
           (= W L)
           (= V U)
           (= T 1.0)
           (= S 2.0)
           (= R E2)
           (= P Q)
           (= M N)
           (= K G2)
           (= J H2)
           (= H D2))
      (and (not A)
           (not F)
           (not E)
           D
           C
           B
           C3
           (not D3)
           E3
           (not F3)
           (= A1 Z)
           (= Y1 O)
           (= X1 W1)
           (= V1 U1)
           (= J1 I1)
           (= P1 O1)
           (= N1 M1)
           (= R1 Q1)
           (= L1 K1)
           (= T1 S1)
           (= H1 I)
           (= G1 F1)
           (= E1 D1)
           (= A2 Z1)
           (= C1 B1)
           (= C2 B2)
           (= J2 G)
           (= Y X)
           (= W L)
           (= V U)
           (= T F2)
           (= S I2)
           (= R E2)
           (= P Q)
           (= M N)
           (= K G2)
           (= J H2)
           (= H D2))
      (and (not A)
           (not F)
           E
           D
           (not C)
           B
           (not C3)
           D3
           E3
           (not F3)
           (= A1 Z)
           (= Y1 O)
           (= X1 W1)
           (= V1 U1)
           (= J1 I1)
           (= P1 O1)
           (= N1 M1)
           (= R1 Q1)
           (= L1 K1)
           (= T1 S1)
           (= H1 I)
           (= G1 F1)
           (= E1 D1)
           (= A2 Z1)
           (= C1 B1)
           (= C2 B2)
           (= J2 G)
           (= Y X)
           (= W L)
           (= V U)
           (= T F2)
           (= S I2)
           (= R E2)
           (= P Q)
           (= M N)
           (= K G2)
           (= J H2)
           (= H D2))
      (and A
           (not F)
           (not E)
           (not D)
           C
           (not B)
           (not C3)
           (not D3)
           (not E3)
           (not F3)
           (= A1 Z)
           (= Y1 O)
           (= X1 W1)
           (= V1 U1)
           (= J1 I1)
           (= P1 O1)
           (= N1 M1)
           (= R1 Q1)
           (= L1 K1)
           (= T1 S1)
           (= H1 I)
           (= G1 F1)
           (= E1 D1)
           (= A2 Z1)
           (= C1 B1)
           (= C2 B2)
           (= J2 G)
           (= Y X)
           (= W L)
           (= V U)
           (= T F2)
           (= S I2)
           (= R E2)
           (= P Q)
           (= M N)
           (= K G2)
           (= J H2)
           (= H D2))
      (and A
           (not F)
           (not E)
           D
           C
           (not B)
           (not C3)
           (not D3)
           E3
           (not F3)
           (= A1 Z)
           (= Y1 O)
           (= X1 W1)
           (= V1 U1)
           (= J1 I1)
           (= P1 O1)
           (= N1 M1)
           (= R1 Q1)
           (= L1 K1)
           (= T1 S1)
           (= H1 I)
           (= G1 F1)
           (= E1 D1)
           (= A2 Z1)
           (= C1 B1)
           (= C2 B2)
           (= J2 G)
           (= Y X)
           (= W L)
           (= V U)
           (= T F2)
           (= S I2)
           (= R E2)
           (= P Q)
           (= M N)
           (= K G2)
           (= J H2)
           (= H D2))
      (and A
           (not F)
           E
           (not D)
           C
           (not B)
           (not C3)
           D3
           (not E3)
           (not F3)
           (= A1 Z)
           (= Y1 O)
           (= X1 W1)
           (= V1 U1)
           (= J1 I1)
           (= P1 O1)
           (= N1 M1)
           (= R1 Q1)
           (= L1 K1)
           (= T1 S1)
           (= H1 I)
           (= G1 F1)
           (= E1 D1)
           (= A2 Z1)
           (= C1 B1)
           (= C2 B2)
           (= J2 G)
           (= Y X)
           (= W L)
           (= V U)
           (= T F2)
           (= S I2)
           (= R E2)
           (= P Q)
           (= M N)
           (= K G2)
           (= J H2)
           (= H D2))
      (and A
           F
           (not E)
           (not D)
           (not C)
           (not B)
           C3
           D3
           E3
           (not F3)
           (= A1 Z)
           (= Y1 O)
           (= X1 W1)
           (= V1 U1)
           (= J1 I1)
           (= P1 O1)
           (= N1 M1)
           (= R1 Q1)
           (= L1 K1)
           (= T1 S1)
           (= H1 I)
           (= G1 F1)
           (= E1 D1)
           (= A2 Z1)
           (= C1 B1)
           (= C2 B2)
           (= J2 G)
           (= Y X)
           (= W L)
           (= V U)
           (= T F2)
           (= S I2)
           (= R E2)
           (= P Q)
           (= M N)
           (= K G2)
           (= J H2)
           (= H D2))
      (and A
           F
           (not E)
           (not D)
           C
           (not B)
           (not C3)
           (not D3)
           (not E3)
           F3
           (= A1 Z)
           (= Y1 O)
           (= X1 W1)
           (= V1 U1)
           (= J1 I1)
           (= P1 O1)
           (= N1 M1)
           (= R1 Q1)
           (= L1 K1)
           (= T1 S1)
           (= H1 I)
           (= G1 F1)
           (= E1 D1)
           (= A2 Z1)
           (= C1 B1)
           (= C2 B2)
           (= J2 G)
           (= Y X)
           (= W L)
           (= V U)
           (= T F2)
           (= S I2)
           (= R E2)
           (= P Q)
           (= M N)
           (= K G2)
           (= J H2)
           (= H D2))
      (and (not A)
           (not F)
           E
           (not D)
           (not C)
           B
           (not C3)
           D3
           (not E3)
           (not F3)
           (= A1 Z)
           (= Y1 O)
           (= X1 W1)
           (= V1 U1)
           (= J1 I1)
           (= P1 O1)
           (= N1 M1)
           (= R1 Q1)
           (= L1 K1)
           (= T1 S1)
           (= H1 I)
           (= G1 F1)
           (= E1 D1)
           (= A2 Z1)
           (= C1 B1)
           (= C2 B2)
           (= J2 G)
           (= Y X)
           (= W 1.0)
           (= V U)
           (= T F2)
           (= S I2)
           (= R E2)
           (= P Q)
           (= M 2.0)
           (= K G2)
           (= J H2)
           (= H D2))
      (and (not A)
           (not F)
           E
           D
           C
           B
           C3
           D3
           E3
           (not F3)
           (= A1 Z)
           (= Y1 O)
           (= X1 W1)
           (= V1 2.0)
           (= J1 I1)
           (= P1 O1)
           (= N1 M1)
           (= R1 Q1)
           (= L1 K1)
           (= T1 S1)
           (= H1 I)
           (= G1 F1)
           (= E1 1.0)
           (= A2 Z1)
           (= C1 B1)
           (= C2 B2)
           (= J2 G)
           (= Y X)
           (= W L)
           (= V U)
           (= T F2)
           (= S I2)
           (= R E2)
           (= P Q)
           (= M N)
           (= K G2)
           (= J H2)
           (= H D2))
      (and A
           (not F)
           E
           D
           (not C)
           (not B)
           C3
           D3
           (not E3)
           (not F3)
           (= A1 Z)
           (= Y1 1.0)
           (= X1 W1)
           (= V1 U1)
           (= J1 I1)
           (= P1 O1)
           (= N1 M1)
           (= R1 Q1)
           (= L1 K1)
           (= T1 S1)
           (= H1 I)
           (= G1 F1)
           (= E1 D1)
           (= A2 Z1)
           (= C1 B1)
           (= C2 B2)
           (= J2 G)
           (= Y X)
           (= W L)
           (= V U)
           (= T F2)
           (= S I2)
           (= R E2)
           (= P 2.0)
           (= M N)
           (= K G2)
           (= J H2)
           (= H D2))
      (and A
           (not F)
           E
           (not D)
           C
           (not B)
           C3
           (not D3)
           E3
           (not F3)
           (not (= N 0.0))
           (= A1 Z)
           (= Y1 O)
           (= X1 W1)
           (= V1 U1)
           (= J1 I1)
           (= P1 O1)
           (= N1 M1)
           (= R1 Q1)
           (= L1 K1)
           (= T1 S1)
           (= H1 I)
           (= G1 F1)
           (= E1 D1)
           (= A2 Z1)
           (= C1 B1)
           (= C2 B2)
           (= J2 G)
           (= Y X)
           (= W L)
           (= V U)
           (= T F2)
           (= S I2)
           (= R E2)
           (= P Q)
           (= M N)
           (= K G2)
           (= J H2)
           (= H D2))
      (and (not A)
           (not F)
           E
           D
           (not C)
           B
           C3
           D3
           (not E3)
           (not F3)
           (not (= Q 0.0))
           (= A1 Z)
           (= Y1 O)
           (= X1 W1)
           (= V1 U1)
           (= J1 I1)
           (= P1 O1)
           (= N1 M1)
           (= R1 Q1)
           (= L1 K1)
           (= T1 S1)
           (= H1 I)
           (= G1 F1)
           (= E1 D1)
           (= A2 Z1)
           (= C1 B1)
           (= C2 B2)
           (= J2 G)
           (= Y X)
           (= W L)
           (= V U)
           (= T F2)
           (= S I2)
           (= R E2)
           (= P Q)
           (= M N)
           (= K G2)
           (= J H2)
           (= H D2))
      (and A
           F
           (not E)
           (not D)
           (not C)
           (not B)
           (not C3)
           D3
           E3
           (not F3)
           (= A1 Z)
           (= Y1 O)
           (= X1 W1)
           (= V1 U1)
           (= J1 I1)
           (= P1 O1)
           (= N1 M1)
           (= R1 Q1)
           (= L1 K1)
           (= T1 S1)
           (not (= U1 0.0))
           (= H1 I)
           (= G1 F1)
           (= E1 D1)
           (= A2 Z1)
           (= C1 B1)
           (= C2 B2)
           (= J2 G)
           (= Y X)
           (= W L)
           (= V U)
           (= T F2)
           (= S I2)
           (= R E2)
           (= P Q)
           (= M N)
           (= K G2)
           (= J H2)
           (= H D2))
      (and (not A)
           (not F)
           (not E)
           D
           C
           B
           C3
           (not D3)
           (not E3)
           (not F3)
           a!42
           (= A1 Z)
           (= Y1 O)
           (= X1 W1)
           (= V1 U1)
           (= J1 I1)
           (= P1 O1)
           (= N1 M1)
           (= R1 Q1)
           (= L1 K1)
           (= T1 S1)
           (= H1 I)
           (= G1 F1)
           (= E1 D1)
           (= A2 Z1)
           (= C1 B1)
           (= C2 B2)
           (not (= I2 0.0))
           (= J2 G)
           (= Y X)
           (= W L)
           (= V U)
           (= T F2)
           (= S I2)
           (= R E2)
           (= P Q)
           (= M N)
           (= K G2)
           (= J H2)
           (= H D2))
      (and A
           (not F)
           E
           (not D)
           (not C)
           B
           C3
           (not D3)
           E3
           (not F3)
           (= N 0.0)
           (= A1 Z)
           (= B2 P2)
           (= B2 0.0)
           (= Y1 O)
           (= X1 W1)
           (= V1 U1)
           (= J1 I1)
           (= P1 O1)
           (= N1 M1)
           (= R1 Q1)
           (= L1 K1)
           (= T1 S1)
           (= H1 I)
           (= G1 F1)
           (= E1 D1)
           (= A2 Z1)
           (= C1 B1)
           (= J2 G)
           (= Y X)
           (= W L)
           (= V U)
           (= T F2)
           (= S I2)
           (= R E2)
           (= P Q)
           (= M N)
           (= K G2)
           (= J H2)
           (= H D2))
      (and (not A)
           (not F)
           E
           D
           (not C)
           (not B)
           C3
           D3
           (not E3)
           (not F3)
           (= Q 0.0)
           (= A1 Z)
           (= Y1 O)
           (= X1 W1)
           (= V1 U1)
           (= J1 I1)
           (= S1 N2)
           (= S1 0.0)
           (= P1 O1)
           (= N1 M1)
           (= R1 Q1)
           (= L1 K1)
           (= H1 I)
           (= G1 F1)
           (= E1 D1)
           (= A2 Z1)
           (= C1 B1)
           (= C2 B2)
           (= J2 G)
           (= Y X)
           (= W L)
           (= V U)
           (= T F2)
           (= S I2)
           (= R E2)
           (= P Q)
           (= M N)
           (= K G2)
           (= J H2)
           (= H D2))
      (and A
           (not F)
           E
           D
           C
           B
           (not C3)
           D3
           E3
           (not F3)
           (= A1 Z)
           (= Y1 O)
           (= X1 W1)
           (= V1 U1)
           (= P1 O1)
           (= N1 M1)
           (= R1 Q1)
           (= L1 K1)
           (= T1 S1)
           (= U1 0.0)
           (= I1 L2)
           (= I1 0.0)
           (= H1 I)
           (= G1 F1)
           (= E1 D1)
           (= A2 Z1)
           (= C1 B1)
           (= C2 B2)
           (= J2 G)
           (= Y X)
           (= W L)
           (= V U)
           (= T F2)
           (= S I2)
           (= R E2)
           (= P Q)
           (= M N)
           (= K G2)
           (= J H2)
           (= H D2))
      (and (not A)
           (not F)
           (not E)
           D
           C
           (not B)
           C3
           (not D3)
           (not E3)
           (not F3)
           a!42
           (= A1 Z)
           (= Y1 O)
           (= X1 W1)
           (= V1 U1)
           (= J1 I1)
           (= Q1 S2)
           (= Q1 0.0)
           (= P1 O1)
           (= N1 M1)
           (= L1 K1)
           (= T1 S1)
           (= H1 I)
           (= G1 F1)
           (= E1 D1)
           (= A2 Z1)
           (= C1 B1)
           (= C2 B2)
           (= I2 0.0)
           (= J2 G)
           (= Y X)
           (= W L)
           (= V U)
           (= T F2)
           (= S I2)
           (= R E2)
           (= P Q)
           (= M N)
           (= K G2)
           (= J H2)
           (= H D2))
      (and (not A)
           F
           (not E)
           (not D)
           (not C)
           B
           C3
           (not D3)
           (not E3)
           (not F3)
           a!42
           (= A1 Z)
           (= Y1 O)
           (= X1 W1)
           (= V1 U1)
           (= J1 I1)
           (= Q1 R2)
           (not (= Q1 0.0))
           (= P1 O1)
           (= N1 M1)
           (= L1 K1)
           (= T1 S1)
           (= H1 I)
           (= G1 F1)
           (= E1 D1)
           (= A2 Z1)
           (= C1 B1)
           (= C2 B2)
           (= F2 2.0)
           (not (= F2 0.0))
           (= I2 0.0)
           (= Y X)
           (= W L)
           (= V U)
           (= T F2)
           (= S I2)
           (= R E2)
           (= P Q)
           (= M N)
           (= K G2)
           (= J H2)
           (= H D2)
           (= G D2)
           a!46)))))))))))))))))))))
      )
      (state B
       C
       D
       E
       F
       Z
       I1
       Q1
       S1
       Z1
       G
       B2
       S
       J
       K
       W
       V
       Y
       C1
       E1
       P
       T
       G1
       H1
       L1
       N1
       R
       M
       P1
       H
       V1
       X1
       Y1)
    )
  )
)
(assert
  (forall ( (A Bool) (B Real) (C Real) (D Real) (E Real) (F Real) (G Real) (H Real) (I Real) (J Real) (K Real) (L Real) (M Real) (N Real) (O Real) (P Real) (Q Real) (R Real) (S Real) (T Real) (U Real) (V Real) (W Real) (X Real) (Y Real) (Z Real) (A1 Real) (B1 Real) (C1 Real) (D1 Bool) (E1 Bool) (F1 Bool) (G1 Bool) ) 
    (=>
      (and
        (state A D1 F1 E1 G1 I M Q R U C1 V B1 A1 Z C G H J K F Y L B N O X D P W S T E)
        (and (= G1 true) (not F1) (not E1) (= D1 true) (not A))
      )
      false
    )
  )
)

(check-sat)
(exit)
